
50
56311

8208 747
7007 4340
6006 3720
6384 581
3003 1860
8008 4960
9120 830
9009 5580
1001 620
3648 332
8208 747
6384 581
912 83
3003 1860
912 83
10010 6200
6006 3720
4004 2480
8208 747
9009 5580
7296 664
5472 498
7007 4340
8008 4960
2736 249
1001 620
6006 3720
7007 4340
7007 4340
912 83
1001 620
6006 3720
6006 3720
5472 498
3003 1860
7007 4340
5472 498
1001 620
6006 3720
8008 4960
4004 2480
10010 6200
8208 747
8208 747
3648 332
10010 6200
8208 747
1824 166
3003 1860
2736 249
